c number of pigeons = 14 ; number of holes = 13
p cnf 182 2380
1 2 3 4 5 6 7 8 9 10 11 12 13 0
14 15 16 17 18 19 20 21 22 23 24 25 26 0
27 28 29 30 31 32 33 34 35 36 37 38 39 0
40 41 42 43 44 45 46 47 48 49 50 51 52 0
53 54 55 56 57 58 59 60 61 62 63 64 65 0
66 67 68 69 70 71 72 73 74 75 76 77 78 0
79 80 81 82 83 84 85 86 87 88 89 90 91 0
92 93 94 95 96 97 98 99 100 101 102 103 104 0
105 106 107 108 109 110 111 112 113 114 115 116 117 0
118 119 120 121 122 123 124 125 126 127 128 129 130 0
131 132 133 134 135 136 137 138 139 140 141 142 143 0
144 145 146 147 148 149 150 151 152 153 154 155 156 0
157 158 159 160 161 162 163 164 165 166 167 168 169 0
170 171 172 173 174 175 176 177 178 179 180 181 182 0
-1 -14 0
-1 -27 0
-1 -40 0
-1 -53 0
-1 -66 0
-1 -79 0
-1 -92 0
-1 -105 0
-1 -118 0
-1 -131 0
-1 -144 0
-1 -157 0
-1 -170 0
-14 -1 0
-14 -27 0
-14 -40 0
-14 -53 0
-14 -66 0
-14 -79 0
-14 -92 0
-14 -105 0
-14 -118 0
-14 -131 0
-14 -144 0
-14 -157 0
-14 -170 0
-27 -1 0
-27 -14 0
-27 -40 0
-27 -53 0
-27 -66 0
-27 -79 0
-27 -92 0
-27 -105 0
-27 -118 0
-27 -131 0
-27 -144 0
-27 -157 0
-27 -170 0
-40 -1 0
-40 -14 0
-40 -27 0
-40 -53 0
-40 -66 0
-40 -79 0
-40 -92 0
-40 -105 0
-40 -118 0
-40 -131 0
-40 -144 0
-40 -157 0
-40 -170 0
-53 -1 0
-53 -14 0
-53 -27 0
-53 -40 0
-53 -66 0
-53 -79 0
-53 -92 0
-53 -105 0
-53 -118 0
-53 -131 0
-53 -144 0
-53 -157 0
-53 -170 0
-66 -1 0
-66 -14 0
-66 -27 0
-66 -40 0
-66 -53 0
-66 -79 0
-66 -92 0
-66 -105 0
-66 -118 0
-66 -131 0
-66 -144 0
-66 -157 0
-66 -170 0
-79 -1 0
-79 -14 0
-79 -27 0
-79 -40 0
-79 -53 0
-79 -66 0
-79 -92 0
-79 -105 0
-79 -118 0
-79 -131 0
-79 -144 0
-79 -157 0
-79 -170 0
-92 -1 0
-92 -14 0
-92 -27 0
-92 -40 0
-92 -53 0
-92 -66 0
-92 -79 0
-92 -105 0
-92 -118 0
-92 -131 0
-92 -144 0
-92 -157 0
-92 -170 0
-105 -1 0
-105 -14 0
-105 -27 0
-105 -40 0
-105 -53 0
-105 -66 0
-105 -79 0
-105 -92 0
-105 -118 0
-105 -131 0
-105 -144 0
-105 -157 0
-105 -170 0
-118 -1 0
-118 -14 0
-118 -27 0
-118 -40 0
-118 -53 0
-118 -66 0
-118 -79 0
-118 -92 0
-118 -105 0
-118 -131 0
-118 -144 0
-118 -157 0
-118 -170 0
-131 -1 0
-131 -14 0
-131 -27 0
-131 -40 0
-131 -53 0
-131 -66 0
-131 -79 0
-131 -92 0
-131 -105 0
-131 -118 0
-131 -144 0
-131 -157 0
-131 -170 0
-144 -1 0
-144 -14 0
-144 -27 0
-144 -40 0
-144 -53 0
-144 -66 0
-144 -79 0
-144 -92 0
-144 -105 0
-144 -118 0
-144 -131 0
-144 -157 0
-144 -170 0
-157 -1 0
-157 -14 0
-157 -27 0
-157 -40 0
-157 -53 0
-157 -66 0
-157 -79 0
-157 -92 0
-157 -105 0
-157 -118 0
-157 -131 0
-157 -144 0
-157 -170 0
-170 -1 0
-170 -14 0
-170 -27 0
-170 -40 0
-170 -53 0
-170 -66 0
-170 -79 0
-170 -92 0
-170 -105 0
-170 -118 0
-170 -131 0
-170 -144 0
-170 -157 0
-2 -15 0
-2 -28 0
-2 -41 0
-2 -54 0
-2 -67 0
-2 -80 0
-2 -93 0
-2 -106 0
-2 -119 0
-2 -132 0
-2 -145 0
-2 -158 0
-2 -171 0
-15 -2 0
-15 -28 0
-15 -41 0
-15 -54 0
-15 -67 0
-15 -80 0
-15 -93 0
-15 -106 0
-15 -119 0
-15 -132 0
-15 -145 0
-15 -158 0
-15 -171 0
-28 -2 0
-28 -15 0
-28 -41 0
-28 -54 0
-28 -67 0
-28 -80 0
-28 -93 0
-28 -106 0
-28 -119 0
-28 -132 0
-28 -145 0
-28 -158 0
-28 -171 0
-41 -2 0
-41 -15 0
-41 -28 0
-41 -54 0
-41 -67 0
-41 -80 0
-41 -93 0
-41 -106 0
-41 -119 0
-41 -132 0
-41 -145 0
-41 -158 0
-41 -171 0
-54 -2 0
-54 -15 0
-54 -28 0
-54 -41 0
-54 -67 0
-54 -80 0
-54 -93 0
-54 -106 0
-54 -119 0
-54 -132 0
-54 -145 0
-54 -158 0
-54 -171 0
-67 -2 0
-67 -15 0
-67 -28 0
-67 -41 0
-67 -54 0
-67 -80 0
-67 -93 0
-67 -106 0
-67 -119 0
-67 -132 0
-67 -145 0
-67 -158 0
-67 -171 0
-80 -2 0
-80 -15 0
-80 -28 0
-80 -41 0
-80 -54 0
-80 -67 0
-80 -93 0
-80 -106 0
-80 -119 0
-80 -132 0
-80 -145 0
-80 -158 0
-80 -171 0
-93 -2 0
-93 -15 0
-93 -28 0
-93 -41 0
-93 -54 0
-93 -67 0
-93 -80 0
-93 -106 0
-93 -119 0
-93 -132 0
-93 -145 0
-93 -158 0
-93 -171 0
-106 -2 0
-106 -15 0
-106 -28 0
-106 -41 0
-106 -54 0
-106 -67 0
-106 -80 0
-106 -93 0
-106 -119 0
-106 -132 0
-106 -145 0
-106 -158 0
-106 -171 0
-119 -2 0
-119 -15 0
-119 -28 0
-119 -41 0
-119 -54 0
-119 -67 0
-119 -80 0
-119 -93 0
-119 -106 0
-119 -132 0
-119 -145 0
-119 -158 0
-119 -171 0
-132 -2 0
-132 -15 0
-132 -28 0
-132 -41 0
-132 -54 0
-132 -67 0
-132 -80 0
-132 -93 0
-132 -106 0
-132 -119 0
-132 -145 0
-132 -158 0
-132 -171 0
-145 -2 0
-145 -15 0
-145 -28 0
-145 -41 0
-145 -54 0
-145 -67 0
-145 -80 0
-145 -93 0
-145 -106 0
-145 -119 0
-145 -132 0
-145 -158 0
-145 -171 0
-158 -2 0
-158 -15 0
-158 -28 0
-158 -41 0
-158 -54 0
-158 -67 0
-158 -80 0
-158 -93 0
-158 -106 0
-158 -119 0
-158 -132 0
-158 -145 0
-158 -171 0
-171 -2 0
-171 -15 0
-171 -28 0
-171 -41 0
-171 -54 0
-171 -67 0
-171 -80 0
-171 -93 0
-171 -106 0
-171 -119 0
-171 -132 0
-171 -145 0
-171 -158 0
-3 -16 0
-3 -29 0
-3 -42 0
-3 -55 0
-3 -68 0
-3 -81 0
-3 -94 0
-3 -107 0
-3 -120 0
-3 -133 0
-3 -146 0
-3 -159 0
-3 -172 0
-16 -3 0
-16 -29 0
-16 -42 0
-16 -55 0
-16 -68 0
-16 -81 0
-16 -94 0
-16 -107 0
-16 -120 0
-16 -133 0
-16 -146 0
-16 -159 0
-16 -172 0
-29 -3 0
-29 -16 0
-29 -42 0
-29 -55 0
-29 -68 0
-29 -81 0
-29 -94 0
-29 -107 0
-29 -120 0
-29 -133 0
-29 -146 0
-29 -159 0
-29 -172 0
-42 -3 0
-42 -16 0
-42 -29 0
-42 -55 0
-42 -68 0
-42 -81 0
-42 -94 0
-42 -107 0
-42 -120 0
-42 -133 0
-42 -146 0
-42 -159 0
-42 -172 0
-55 -3 0
-55 -16 0
-55 -29 0
-55 -42 0
-55 -68 0
-55 -81 0
-55 -94 0
-55 -107 0
-55 -120 0
-55 -133 0
-55 -146 0
-55 -159 0
-55 -172 0
-68 -3 0
-68 -16 0
-68 -29 0
-68 -42 0
-68 -55 0
-68 -81 0
-68 -94 0
-68 -107 0
-68 -120 0
-68 -133 0
-68 -146 0
-68 -159 0
-68 -172 0
-81 -3 0
-81 -16 0
-81 -29 0
-81 -42 0
-81 -55 0
-81 -68 0
-81 -94 0
-81 -107 0
-81 -120 0
-81 -133 0
-81 -146 0
-81 -159 0
-81 -172 0
-94 -3 0
-94 -16 0
-94 -29 0
-94 -42 0
-94 -55 0
-94 -68 0
-94 -81 0
-94 -107 0
-94 -120 0
-94 -133 0
-94 -146 0
-94 -159 0
-94 -172 0
-107 -3 0
-107 -16 0
-107 -29 0
-107 -42 0
-107 -55 0
-107 -68 0
-107 -81 0
-107 -94 0
-107 -120 0
-107 -133 0
-107 -146 0
-107 -159 0
-107 -172 0
-120 -3 0
-120 -16 0
-120 -29 0
-120 -42 0
-120 -55 0
-120 -68 0
-120 -81 0
-120 -94 0
-120 -107 0
-120 -133 0
-120 -146 0
-120 -159 0
-120 -172 0
-133 -3 0
-133 -16 0
-133 -29 0
-133 -42 0
-133 -55 0
-133 -68 0
-133 -81 0
-133 -94 0
-133 -107 0
-133 -120 0
-133 -146 0
-133 -159 0
-133 -172 0
-146 -3 0
-146 -16 0
-146 -29 0
-146 -42 0
-146 -55 0
-146 -68 0
-146 -81 0
-146 -94 0
-146 -107 0
-146 -120 0
-146 -133 0
-146 -159 0
-146 -172 0
-159 -3 0
-159 -16 0
-159 -29 0
-159 -42 0
-159 -55 0
-159 -68 0
-159 -81 0
-159 -94 0
-159 -107 0
-159 -120 0
-159 -133 0
-159 -146 0
-159 -172 0
-172 -3 0
-172 -16 0
-172 -29 0
-172 -42 0
-172 -55 0
-172 -68 0
-172 -81 0
-172 -94 0
-172 -107 0
-172 -120 0
-172 -133 0
-172 -146 0
-172 -159 0
-4 -17 0
-4 -30 0
-4 -43 0
-4 -56 0
-4 -69 0
-4 -82 0
-4 -95 0
-4 -108 0
-4 -121 0
-4 -134 0
-4 -147 0
-4 -160 0
-4 -173 0
-17 -4 0
-17 -30 0
-17 -43 0
-17 -56 0
-17 -69 0
-17 -82 0
-17 -95 0
-17 -108 0
-17 -121 0
-17 -134 0
-17 -147 0
-17 -160 0
-17 -173 0
-30 -4 0
-30 -17 0
-30 -43 0
-30 -56 0
-30 -69 0
-30 -82 0
-30 -95 0
-30 -108 0
-30 -121 0
-30 -134 0
-30 -147 0
-30 -160 0
-30 -173 0
-43 -4 0
-43 -17 0
-43 -30 0
-43 -56 0
-43 -69 0
-43 -82 0
-43 -95 0
-43 -108 0
-43 -121 0
-43 -134 0
-43 -147 0
-43 -160 0
-43 -173 0
-56 -4 0
-56 -17 0
-56 -30 0
-56 -43 0
-56 -69 0
-56 -82 0
-56 -95 0
-56 -108 0
-56 -121 0
-56 -134 0
-56 -147 0
-56 -160 0
-56 -173 0
-69 -4 0
-69 -17 0
-69 -30 0
-69 -43 0
-69 -56 0
-69 -82 0
-69 -95 0
-69 -108 0
-69 -121 0
-69 -134 0
-69 -147 0
-69 -160 0
-69 -173 0
-82 -4 0
-82 -17 0
-82 -30 0
-82 -43 0
-82 -56 0
-82 -69 0
-82 -95 0
-82 -108 0
-82 -121 0
-82 -134 0
-82 -147 0
-82 -160 0
-82 -173 0
-95 -4 0
-95 -17 0
-95 -30 0
-95 -43 0
-95 -56 0
-95 -69 0
-95 -82 0
-95 -108 0
-95 -121 0
-95 -134 0
-95 -147 0
-95 -160 0
-95 -173 0
-108 -4 0
-108 -17 0
-108 -30 0
-108 -43 0
-108 -56 0
-108 -69 0
-108 -82 0
-108 -95 0
-108 -121 0
-108 -134 0
-108 -147 0
-108 -160 0
-108 -173 0
-121 -4 0
-121 -17 0
-121 -30 0
-121 -43 0
-121 -56 0
-121 -69 0
-121 -82 0
-121 -95 0
-121 -108 0
-121 -134 0
-121 -147 0
-121 -160 0
-121 -173 0
-134 -4 0
-134 -17 0
-134 -30 0
-134 -43 0
-134 -56 0
-134 -69 0
-134 -82 0
-134 -95 0
-134 -108 0
-134 -121 0
-134 -147 0
-134 -160 0
-134 -173 0
-147 -4 0
-147 -17 0
-147 -30 0
-147 -43 0
-147 -56 0
-147 -69 0
-147 -82 0
-147 -95 0
-147 -108 0
-147 -121 0
-147 -134 0
-147 -160 0
-147 -173 0
-160 -4 0
-160 -17 0
-160 -30 0
-160 -43 0
-160 -56 0
-160 -69 0
-160 -82 0
-160 -95 0
-160 -108 0
-160 -121 0
-160 -134 0
-160 -147 0
-160 -173 0
-173 -4 0
-173 -17 0
-173 -30 0
-173 -43 0
-173 -56 0
-173 -69 0
-173 -82 0
-173 -95 0
-173 -108 0
-173 -121 0
-173 -134 0
-173 -147 0
-173 -160 0
-5 -18 0
-5 -31 0
-5 -44 0
-5 -57 0
-5 -70 0
-5 -83 0
-5 -96 0
-5 -109 0
-5 -122 0
-5 -135 0
-5 -148 0
-5 -161 0
-5 -174 0
-18 -5 0
-18 -31 0
-18 -44 0
-18 -57 0
-18 -70 0
-18 -83 0
-18 -96 0
-18 -109 0
-18 -122 0
-18 -135 0
-18 -148 0
-18 -161 0
-18 -174 0
-31 -5 0
-31 -18 0
-31 -44 0
-31 -57 0
-31 -70 0
-31 -83 0
-31 -96 0
-31 -109 0
-31 -122 0
-31 -135 0
-31 -148 0
-31 -161 0
-31 -174 0
-44 -5 0
-44 -18 0
-44 -31 0
-44 -57 0
-44 -70 0
-44 -83 0
-44 -96 0
-44 -109 0
-44 -122 0
-44 -135 0
-44 -148 0
-44 -161 0
-44 -174 0
-57 -5 0
-57 -18 0
-57 -31 0
-57 -44 0
-57 -70 0
-57 -83 0
-57 -96 0
-57 -109 0
-57 -122 0
-57 -135 0
-57 -148 0
-57 -161 0
-57 -174 0
-70 -5 0
-70 -18 0
-70 -31 0
-70 -44 0
-70 -57 0
-70 -83 0
-70 -96 0
-70 -109 0
-70 -122 0
-70 -135 0
-70 -148 0
-70 -161 0
-70 -174 0
-83 -5 0
-83 -18 0
-83 -31 0
-83 -44 0
-83 -57 0
-83 -70 0
-83 -96 0
-83 -109 0
-83 -122 0
-83 -135 0
-83 -148 0
-83 -161 0
-83 -174 0
-96 -5 0
-96 -18 0
-96 -31 0
-96 -44 0
-96 -57 0
-96 -70 0
-96 -83 0
-96 -109 0
-96 -122 0
-96 -135 0
-96 -148 0
-96 -161 0
-96 -174 0
-109 -5 0
-109 -18 0
-109 -31 0
-109 -44 0
-109 -57 0
-109 -70 0
-109 -83 0
-109 -96 0
-109 -122 0
-109 -135 0
-109 -148 0
-109 -161 0
-109 -174 0
-122 -5 0
-122 -18 0
-122 -31 0
-122 -44 0
-122 -57 0
-122 -70 0
-122 -83 0
-122 -96 0
-122 -109 0
-122 -135 0
-122 -148 0
-122 -161 0
-122 -174 0
-135 -5 0
-135 -18 0
-135 -31 0
-135 -44 0
-135 -57 0
-135 -70 0
-135 -83 0
-135 -96 0
-135 -109 0
-135 -122 0
-135 -148 0
-135 -161 0
-135 -174 0
-148 -5 0
-148 -18 0
-148 -31 0
-148 -44 0
-148 -57 0
-148 -70 0
-148 -83 0
-148 -96 0
-148 -109 0
-148 -122 0
-148 -135 0
-148 -161 0
-148 -174 0
-161 -5 0
-161 -18 0
-161 -31 0
-161 -44 0
-161 -57 0
-161 -70 0
-161 -83 0
-161 -96 0
-161 -109 0
-161 -122 0
-161 -135 0
-161 -148 0
-161 -174 0
-174 -5 0
-174 -18 0
-174 -31 0
-174 -44 0
-174 -57 0
-174 -70 0
-174 -83 0
-174 -96 0
-174 -109 0
-174 -122 0
-174 -135 0
-174 -148 0
-174 -161 0
-6 -19 0
-6 -32 0
-6 -45 0
-6 -58 0
-6 -71 0
-6 -84 0
-6 -97 0
-6 -110 0
-6 -123 0
-6 -136 0
-6 -149 0
-6 -162 0
-6 -175 0
-19 -6 0
-19 -32 0
-19 -45 0
-19 -58 0
-19 -71 0
-19 -84 0
-19 -97 0
-19 -110 0
-19 -123 0
-19 -136 0
-19 -149 0
-19 -162 0
-19 -175 0
-32 -6 0
-32 -19 0
-32 -45 0
-32 -58 0
-32 -71 0
-32 -84 0
-32 -97 0
-32 -110 0
-32 -123 0
-32 -136 0
-32 -149 0
-32 -162 0
-32 -175 0
-45 -6 0
-45 -19 0
-45 -32 0
-45 -58 0
-45 -71 0
-45 -84 0
-45 -97 0
-45 -110 0
-45 -123 0
-45 -136 0
-45 -149 0
-45 -162 0
-45 -175 0
-58 -6 0
-58 -19 0
-58 -32 0
-58 -45 0
-58 -71 0
-58 -84 0
-58 -97 0
-58 -110 0
-58 -123 0
-58 -136 0
-58 -149 0
-58 -162 0
-58 -175 0
-71 -6 0
-71 -19 0
-71 -32 0
-71 -45 0
-71 -58 0
-71 -84 0
-71 -97 0
-71 -110 0
-71 -123 0
-71 -136 0
-71 -149 0
-71 -162 0
-71 -175 0
-84 -6 0
-84 -19 0
-84 -32 0
-84 -45 0
-84 -58 0
-84 -71 0
-84 -97 0
-84 -110 0
-84 -123 0
-84 -136 0
-84 -149 0
-84 -162 0
-84 -175 0
-97 -6 0
-97 -19 0
-97 -32 0
-97 -45 0
-97 -58 0
-97 -71 0
-97 -84 0
-97 -110 0
-97 -123 0
-97 -136 0
-97 -149 0
-97 -162 0
-97 -175 0
-110 -6 0
-110 -19 0
-110 -32 0
-110 -45 0
-110 -58 0
-110 -71 0
-110 -84 0
-110 -97 0
-110 -123 0
-110 -136 0
-110 -149 0
-110 -162 0
-110 -175 0
-123 -6 0
-123 -19 0
-123 -32 0
-123 -45 0
-123 -58 0
-123 -71 0
-123 -84 0
-123 -97 0
-123 -110 0
-123 -136 0
-123 -149 0
-123 -162 0
-123 -175 0
-136 -6 0
-136 -19 0
-136 -32 0
-136 -45 0
-136 -58 0
-136 -71 0
-136 -84 0
-136 -97 0
-136 -110 0
-136 -123 0
-136 -149 0
-136 -162 0
-136 -175 0
-149 -6 0
-149 -19 0
-149 -32 0
-149 -45 0
-149 -58 0
-149 -71 0
-149 -84 0
-149 -97 0
-149 -110 0
-149 -123 0
-149 -136 0
-149 -162 0
-149 -175 0
-162 -6 0
-162 -19 0
-162 -32 0
-162 -45 0
-162 -58 0
-162 -71 0
-162 -84 0
-162 -97 0
-162 -110 0
-162 -123 0
-162 -136 0
-162 -149 0
-162 -175 0
-175 -6 0
-175 -19 0
-175 -32 0
-175 -45 0
-175 -58 0
-175 -71 0
-175 -84 0
-175 -97 0
-175 -110 0
-175 -123 0
-175 -136 0
-175 -149 0
-175 -162 0
-7 -20 0
-7 -33 0
-7 -46 0
-7 -59 0
-7 -72 0
-7 -85 0
-7 -98 0
-7 -111 0
-7 -124 0
-7 -137 0
-7 -150 0
-7 -163 0
-7 -176 0
-20 -7 0
-20 -33 0
-20 -46 0
-20 -59 0
-20 -72 0
-20 -85 0
-20 -98 0
-20 -111 0
-20 -124 0
-20 -137 0
-20 -150 0
-20 -163 0
-20 -176 0
-33 -7 0
-33 -20 0
-33 -46 0
-33 -59 0
-33 -72 0
-33 -85 0
-33 -98 0
-33 -111 0
-33 -124 0
-33 -137 0
-33 -150 0
-33 -163 0
-33 -176 0
-46 -7 0
-46 -20 0
-46 -33 0
-46 -59 0
-46 -72 0
-46 -85 0
-46 -98 0
-46 -111 0
-46 -124 0
-46 -137 0
-46 -150 0
-46 -163 0
-46 -176 0
-59 -7 0
-59 -20 0
-59 -33 0
-59 -46 0
-59 -72 0
-59 -85 0
-59 -98 0
-59 -111 0
-59 -124 0
-59 -137 0
-59 -150 0
-59 -163 0
-59 -176 0
-72 -7 0
-72 -20 0
-72 -33 0
-72 -46 0
-72 -59 0
-72 -85 0
-72 -98 0
-72 -111 0
-72 -124 0
-72 -137 0
-72 -150 0
-72 -163 0
-72 -176 0
-85 -7 0
-85 -20 0
-85 -33 0
-85 -46 0
-85 -59 0
-85 -72 0
-85 -98 0
-85 -111 0
-85 -124 0
-85 -137 0
-85 -150 0
-85 -163 0
-85 -176 0
-98 -7 0
-98 -20 0
-98 -33 0
-98 -46 0
-98 -59 0
-98 -72 0
-98 -85 0
-98 -111 0
-98 -124 0
-98 -137 0
-98 -150 0
-98 -163 0
-98 -176 0
-111 -7 0
-111 -20 0
-111 -33 0
-111 -46 0
-111 -59 0
-111 -72 0
-111 -85 0
-111 -98 0
-111 -124 0
-111 -137 0
-111 -150 0
-111 -163 0
-111 -176 0
-124 -7 0
-124 -20 0
-124 -33 0
-124 -46 0
-124 -59 0
-124 -72 0
-124 -85 0
-124 -98 0
-124 -111 0
-124 -137 0
-124 -150 0
-124 -163 0
-124 -176 0
-137 -7 0
-137 -20 0
-137 -33 0
-137 -46 0
-137 -59 0
-137 -72 0
-137 -85 0
-137 -98 0
-137 -111 0
-137 -124 0
-137 -150 0
-137 -163 0
-137 -176 0
-150 -7 0
-150 -20 0
-150 -33 0
-150 -46 0
-150 -59 0
-150 -72 0
-150 -85 0
-150 -98 0
-150 -111 0
-150 -124 0
-150 -137 0
-150 -163 0
-150 -176 0
-163 -7 0
-163 -20 0
-163 -33 0
-163 -46 0
-163 -59 0
-163 -72 0
-163 -85 0
-163 -98 0
-163 -111 0
-163 -124 0
-163 -137 0
-163 -150 0
-163 -176 0
-176 -7 0
-176 -20 0
-176 -33 0
-176 -46 0
-176 -59 0
-176 -72 0
-176 -85 0
-176 -98 0
-176 -111 0
-176 -124 0
-176 -137 0
-176 -150 0
-176 -163 0
-8 -21 0
-8 -34 0
-8 -47 0
-8 -60 0
-8 -73 0
-8 -86 0
-8 -99 0
-8 -112 0
-8 -125 0
-8 -138 0
-8 -151 0
-8 -164 0
-8 -177 0
-21 -8 0
-21 -34 0
-21 -47 0
-21 -60 0
-21 -73 0
-21 -86 0
-21 -99 0
-21 -112 0
-21 -125 0
-21 -138 0
-21 -151 0
-21 -164 0
-21 -177 0
-34 -8 0
-34 -21 0
-34 -47 0
-34 -60 0
-34 -73 0
-34 -86 0
-34 -99 0
-34 -112 0
-34 -125 0
-34 -138 0
-34 -151 0
-34 -164 0
-34 -177 0
-47 -8 0
-47 -21 0
-47 -34 0
-47 -60 0
-47 -73 0
-47 -86 0
-47 -99 0
-47 -112 0
-47 -125 0
-47 -138 0
-47 -151 0
-47 -164 0
-47 -177 0
-60 -8 0
-60 -21 0
-60 -34 0
-60 -47 0
-60 -73 0
-60 -86 0
-60 -99 0
-60 -112 0
-60 -125 0
-60 -138 0
-60 -151 0
-60 -164 0
-60 -177 0
-73 -8 0
-73 -21 0
-73 -34 0
-73 -47 0
-73 -60 0
-73 -86 0
-73 -99 0
-73 -112 0
-73 -125 0
-73 -138 0
-73 -151 0
-73 -164 0
-73 -177 0
-86 -8 0
-86 -21 0
-86 -34 0
-86 -47 0
-86 -60 0
-86 -73 0
-86 -99 0
-86 -112 0
-86 -125 0
-86 -138 0
-86 -151 0
-86 -164 0
-86 -177 0
-99 -8 0
-99 -21 0
-99 -34 0
-99 -47 0
-99 -60 0
-99 -73 0
-99 -86 0
-99 -112 0
-99 -125 0
-99 -138 0
-99 -151 0
-99 -164 0
-99 -177 0
-112 -8 0
-112 -21 0
-112 -34 0
-112 -47 0
-112 -60 0
-112 -73 0
-112 -86 0
-112 -99 0
-112 -125 0
-112 -138 0
-112 -151 0
-112 -164 0
-112 -177 0
-125 -8 0
-125 -21 0
-125 -34 0
-125 -47 0
-125 -60 0
-125 -73 0
-125 -86 0
-125 -99 0
-125 -112 0
-125 -138 0
-125 -151 0
-125 -164 0
-125 -177 0
-138 -8 0
-138 -21 0
-138 -34 0
-138 -47 0
-138 -60 0
-138 -73 0
-138 -86 0
-138 -99 0
-138 -112 0
-138 -125 0
-138 -151 0
-138 -164 0
-138 -177 0
-151 -8 0
-151 -21 0
-151 -34 0
-151 -47 0
-151 -60 0
-151 -73 0
-151 -86 0
-151 -99 0
-151 -112 0
-151 -125 0
-151 -138 0
-151 -164 0
-151 -177 0
-164 -8 0
-164 -21 0
-164 -34 0
-164 -47 0
-164 -60 0
-164 -73 0
-164 -86 0
-164 -99 0
-164 -112 0
-164 -125 0
-164 -138 0
-164 -151 0
-164 -177 0
-177 -8 0
-177 -21 0
-177 -34 0
-177 -47 0
-177 -60 0
-177 -73 0
-177 -86 0
-177 -99 0
-177 -112 0
-177 -125 0
-177 -138 0
-177 -151 0
-177 -164 0
-9 -22 0
-9 -35 0
-9 -48 0
-9 -61 0
-9 -74 0
-9 -87 0
-9 -100 0
-9 -113 0
-9 -126 0
-9 -139 0
-9 -152 0
-9 -165 0
-9 -178 0
-22 -9 0
-22 -35 0
-22 -48 0
-22 -61 0
-22 -74 0
-22 -87 0
-22 -100 0
-22 -113 0
-22 -126 0
-22 -139 0
-22 -152 0
-22 -165 0
-22 -178 0
-35 -9 0
-35 -22 0
-35 -48 0
-35 -61 0
-35 -74 0
-35 -87 0
-35 -100 0
-35 -113 0
-35 -126 0
-35 -139 0
-35 -152 0
-35 -165 0
-35 -178 0
-48 -9 0
-48 -22 0
-48 -35 0
-48 -61 0
-48 -74 0
-48 -87 0
-48 -100 0
-48 -113 0
-48 -126 0
-48 -139 0
-48 -152 0
-48 -165 0
-48 -178 0
-61 -9 0
-61 -22 0
-61 -35 0
-61 -48 0
-61 -74 0
-61 -87 0
-61 -100 0
-61 -113 0
-61 -126 0
-61 -139 0
-61 -152 0
-61 -165 0
-61 -178 0
-74 -9 0
-74 -22 0
-74 -35 0
-74 -48 0
-74 -61 0
-74 -87 0
-74 -100 0
-74 -113 0
-74 -126 0
-74 -139 0
-74 -152 0
-74 -165 0
-74 -178 0
-87 -9 0
-87 -22 0
-87 -35 0
-87 -48 0
-87 -61 0
-87 -74 0
-87 -100 0
-87 -113 0
-87 -126 0
-87 -139 0
-87 -152 0
-87 -165 0
-87 -178 0
-100 -9 0
-100 -22 0
-100 -35 0
-100 -48 0
-100 -61 0
-100 -74 0
-100 -87 0
-100 -113 0
-100 -126 0
-100 -139 0
-100 -152 0
-100 -165 0
-100 -178 0
-113 -9 0
-113 -22 0
-113 -35 0
-113 -48 0
-113 -61 0
-113 -74 0
-113 -87 0
-113 -100 0
-113 -126 0
-113 -139 0
-113 -152 0
-113 -165 0
-113 -178 0
-126 -9 0
-126 -22 0
-126 -35 0
-126 -48 0
-126 -61 0
-126 -74 0
-126 -87 0
-126 -100 0
-126 -113 0
-126 -139 0
-126 -152 0
-126 -165 0
-126 -178 0
-139 -9 0
-139 -22 0
-139 -35 0
-139 -48 0
-139 -61 0
-139 -74 0
-139 -87 0
-139 -100 0
-139 -113 0
-139 -126 0
-139 -152 0
-139 -165 0
-139 -178 0
-152 -9 0
-152 -22 0
-152 -35 0
-152 -48 0
-152 -61 0
-152 -74 0
-152 -87 0
-152 -100 0
-152 -113 0
-152 -126 0
-152 -139 0
-152 -165 0
-152 -178 0
-165 -9 0
-165 -22 0
-165 -35 0
-165 -48 0
-165 -61 0
-165 -74 0
-165 -87 0
-165 -100 0
-165 -113 0
-165 -126 0
-165 -139 0
-165 -152 0
-165 -178 0
-178 -9 0
-178 -22 0
-178 -35 0
-178 -48 0
-178 -61 0
-178 -74 0
-178 -87 0
-178 -100 0
-178 -113 0
-178 -126 0
-178 -139 0
-178 -152 0
-178 -165 0
-10 -23 0
-10 -36 0
-10 -49 0
-10 -62 0
-10 -75 0
-10 -88 0
-10 -101 0
-10 -114 0
-10 -127 0
-10 -140 0
-10 -153 0
-10 -166 0
-10 -179 0
-23 -10 0
-23 -36 0
-23 -49 0
-23 -62 0
-23 -75 0
-23 -88 0
-23 -101 0
-23 -114 0
-23 -127 0
-23 -140 0
-23 -153 0
-23 -166 0
-23 -179 0
-36 -10 0
-36 -23 0
-36 -49 0
-36 -62 0
-36 -75 0
-36 -88 0
-36 -101 0
-36 -114 0
-36 -127 0
-36 -140 0
-36 -153 0
-36 -166 0
-36 -179 0
-49 -10 0
-49 -23 0
-49 -36 0
-49 -62 0
-49 -75 0
-49 -88 0
-49 -101 0
-49 -114 0
-49 -127 0
-49 -140 0
-49 -153 0
-49 -166 0
-49 -179 0
-62 -10 0
-62 -23 0
-62 -36 0
-62 -49 0
-62 -75 0
-62 -88 0
-62 -101 0
-62 -114 0
-62 -127 0
-62 -140 0
-62 -153 0
-62 -166 0
-62 -179 0
-75 -10 0
-75 -23 0
-75 -36 0
-75 -49 0
-75 -62 0
-75 -88 0
-75 -101 0
-75 -114 0
-75 -127 0
-75 -140 0
-75 -153 0
-75 -166 0
-75 -179 0
-88 -10 0
-88 -23 0
-88 -36 0
-88 -49 0
-88 -62 0
-88 -75 0
-88 -101 0
-88 -114 0
-88 -127 0
-88 -140 0
-88 -153 0
-88 -166 0
-88 -179 0
-101 -10 0
-101 -23 0
-101 -36 0
-101 -49 0
-101 -62 0
-101 -75 0
-101 -88 0
-101 -114 0
-101 -127 0
-101 -140 0
-101 -153 0
-101 -166 0
-101 -179 0
-114 -10 0
-114 -23 0
-114 -36 0
-114 -49 0
-114 -62 0
-114 -75 0
-114 -88 0
-114 -101 0
-114 -127 0
-114 -140 0
-114 -153 0
-114 -166 0
-114 -179 0
-127 -10 0
-127 -23 0
-127 -36 0
-127 -49 0
-127 -62 0
-127 -75 0
-127 -88 0
-127 -101 0
-127 -114 0
-127 -140 0
-127 -153 0
-127 -166 0
-127 -179 0
-140 -10 0
-140 -23 0
-140 -36 0
-140 -49 0
-140 -62 0
-140 -75 0
-140 -88 0
-140 -101 0
-140 -114 0
-140 -127 0
-140 -153 0
-140 -166 0
-140 -179 0
-153 -10 0
-153 -23 0
-153 -36 0
-153 -49 0
-153 -62 0
-153 -75 0
-153 -88 0
-153 -101 0
-153 -114 0
-153 -127 0
-153 -140 0
-153 -166 0
-153 -179 0
-166 -10 0
-166 -23 0
-166 -36 0
-166 -49 0
-166 -62 0
-166 -75 0
-166 -88 0
-166 -101 0
-166 -114 0
-166 -127 0
-166 -140 0
-166 -153 0
-166 -179 0
-179 -10 0
-179 -23 0
-179 -36 0
-179 -49 0
-179 -62 0
-179 -75 0
-179 -88 0
-179 -101 0
-179 -114 0
-179 -127 0
-179 -140 0
-179 -153 0
-179 -166 0
-11 -24 0
-11 -37 0
-11 -50 0
-11 -63 0
-11 -76 0
-11 -89 0
-11 -102 0
-11 -115 0
-11 -128 0
-11 -141 0
-11 -154 0
-11 -167 0
-11 -180 0
-24 -11 0
-24 -37 0
-24 -50 0
-24 -63 0
-24 -76 0
-24 -89 0
-24 -102 0
-24 -115 0
-24 -128 0
-24 -141 0
-24 -154 0
-24 -167 0
-24 -180 0
-37 -11 0
-37 -24 0
-37 -50 0
-37 -63 0
-37 -76 0
-37 -89 0
-37 -102 0
-37 -115 0
-37 -128 0
-37 -141 0
-37 -154 0
-37 -167 0
-37 -180 0
-50 -11 0
-50 -24 0
-50 -37 0
-50 -63 0
-50 -76 0
-50 -89 0
-50 -102 0
-50 -115 0
-50 -128 0
-50 -141 0
-50 -154 0
-50 -167 0
-50 -180 0
-63 -11 0
-63 -24 0
-63 -37 0
-63 -50 0
-63 -76 0
-63 -89 0
-63 -102 0
-63 -115 0
-63 -128 0
-63 -141 0
-63 -154 0
-63 -167 0
-63 -180 0
-76 -11 0
-76 -24 0
-76 -37 0
-76 -50 0
-76 -63 0
-76 -89 0
-76 -102 0
-76 -115 0
-76 -128 0
-76 -141 0
-76 -154 0
-76 -167 0
-76 -180 0
-89 -11 0
-89 -24 0
-89 -37 0
-89 -50 0
-89 -63 0
-89 -76 0
-89 -102 0
-89 -115 0
-89 -128 0
-89 -141 0
-89 -154 0
-89 -167 0
-89 -180 0
-102 -11 0
-102 -24 0
-102 -37 0
-102 -50 0
-102 -63 0
-102 -76 0
-102 -89 0
-102 -115 0
-102 -128 0
-102 -141 0
-102 -154 0
-102 -167 0
-102 -180 0
-115 -11 0
-115 -24 0
-115 -37 0
-115 -50 0
-115 -63 0
-115 -76 0
-115 -89 0
-115 -102 0
-115 -128 0
-115 -141 0
-115 -154 0
-115 -167 0
-115 -180 0
-128 -11 0
-128 -24 0
-128 -37 0
-128 -50 0
-128 -63 0
-128 -76 0
-128 -89 0
-128 -102 0
-128 -115 0
-128 -141 0
-128 -154 0
-128 -167 0
-128 -180 0
-141 -11 0
-141 -24 0
-141 -37 0
-141 -50 0
-141 -63 0
-141 -76 0
-141 -89 0
-141 -102 0
-141 -115 0
-141 -128 0
-141 -154 0
-141 -167 0
-141 -180 0
-154 -11 0
-154 -24 0
-154 -37 0
-154 -50 0
-154 -63 0
-154 -76 0
-154 -89 0
-154 -102 0
-154 -115 0
-154 -128 0
-154 -141 0
-154 -167 0
-154 -180 0
-167 -11 0
-167 -24 0
-167 -37 0
-167 -50 0
-167 -63 0
-167 -76 0
-167 -89 0
-167 -102 0
-167 -115 0
-167 -128 0
-167 -141 0
-167 -154 0
-167 -180 0
-180 -11 0
-180 -24 0
-180 -37 0
-180 -50 0
-180 -63 0
-180 -76 0
-180 -89 0
-180 -102 0
-180 -115 0
-180 -128 0
-180 -141 0
-180 -154 0
-180 -167 0
-12 -25 0
-12 -38 0
-12 -51 0
-12 -64 0
-12 -77 0
-12 -90 0
-12 -103 0
-12 -116 0
-12 -129 0
-12 -142 0
-12 -155 0
-12 -168 0
-12 -181 0
-25 -12 0
-25 -38 0
-25 -51 0
-25 -64 0
-25 -77 0
-25 -90 0
-25 -103 0
-25 -116 0
-25 -129 0
-25 -142 0
-25 -155 0
-25 -168 0
-25 -181 0
-38 -12 0
-38 -25 0
-38 -51 0
-38 -64 0
-38 -77 0
-38 -90 0
-38 -103 0
-38 -116 0
-38 -129 0
-38 -142 0
-38 -155 0
-38 -168 0
-38 -181 0
-51 -12 0
-51 -25 0
-51 -38 0
-51 -64 0
-51 -77 0
-51 -90 0
-51 -103 0
-51 -116 0
-51 -129 0
-51 -142 0
-51 -155 0
-51 -168 0
-51 -181 0
-64 -12 0
-64 -25 0
-64 -38 0
-64 -51 0
-64 -77 0
-64 -90 0
-64 -103 0
-64 -116 0
-64 -129 0
-64 -142 0
-64 -155 0
-64 -168 0
-64 -181 0
-77 -12 0
-77 -25 0
-77 -38 0
-77 -51 0
-77 -64 0
-77 -90 0
-77 -103 0
-77 -116 0
-77 -129 0
-77 -142 0
-77 -155 0
-77 -168 0
-77 -181 0
-90 -12 0
-90 -25 0
-90 -38 0
-90 -51 0
-90 -64 0
-90 -77 0
-90 -103 0
-90 -116 0
-90 -129 0
-90 -142 0
-90 -155 0
-90 -168 0
-90 -181 0
-103 -12 0
-103 -25 0
-103 -38 0
-103 -51 0
-103 -64 0
-103 -77 0
-103 -90 0
-103 -116 0
-103 -129 0
-103 -142 0
-103 -155 0
-103 -168 0
-103 -181 0
-116 -12 0
-116 -25 0
-116 -38 0
-116 -51 0
-116 -64 0
-116 -77 0
-116 -90 0
-116 -103 0
-116 -129 0
-116 -142 0
-116 -155 0
-116 -168 0
-116 -181 0
-129 -12 0
-129 -25 0
-129 -38 0
-129 -51 0
-129 -64 0
-129 -77 0
-129 -90 0
-129 -103 0
-129 -116 0
-129 -142 0
-129 -155 0
-129 -168 0
-129 -181 0
-142 -12 0
-142 -25 0
-142 -38 0
-142 -51 0
-142 -64 0
-142 -77 0
-142 -90 0
-142 -103 0
-142 -116 0
-142 -129 0
-142 -155 0
-142 -168 0
-142 -181 0
-155 -12 0
-155 -25 0
-155 -38 0
-155 -51 0
-155 -64 0
-155 -77 0
-155 -90 0
-155 -103 0
-155 -116 0
-155 -129 0
-155 -142 0
-155 -168 0
-155 -181 0
-168 -12 0
-168 -25 0
-168 -38 0
-168 -51 0
-168 -64 0
-168 -77 0
-168 -90 0
-168 -103 0
-168 -116 0
-168 -129 0
-168 -142 0
-168 -155 0
-168 -181 0
-181 -12 0
-181 -25 0
-181 -38 0
-181 -51 0
-181 -64 0
-181 -77 0
-181 -90 0
-181 -103 0
-181 -116 0
-181 -129 0
-181 -142 0
-181 -155 0
-181 -168 0
-13 -26 0
-13 -39 0
-13 -52 0
-13 -65 0
-13 -78 0
-13 -91 0
-13 -104 0
-13 -117 0
-13 -130 0
-13 -143 0
-13 -156 0
-13 -169 0
-13 -182 0
-26 -13 0
-26 -39 0
-26 -52 0
-26 -65 0
-26 -78 0
-26 -91 0
-26 -104 0
-26 -117 0
-26 -130 0
-26 -143 0
-26 -156 0
-26 -169 0
-26 -182 0
-39 -13 0
-39 -26 0
-39 -52 0
-39 -65 0
-39 -78 0
-39 -91 0
-39 -104 0
-39 -117 0
-39 -130 0
-39 -143 0
-39 -156 0
-39 -169 0
-39 -182 0
-52 -13 0
-52 -26 0
-52 -39 0
-52 -65 0
-52 -78 0
-52 -91 0
-52 -104 0
-52 -117 0
-52 -130 0
-52 -143 0
-52 -156 0
-52 -169 0
-52 -182 0
-65 -13 0
-65 -26 0
-65 -39 0
-65 -52 0
-65 -78 0
-65 -91 0
-65 -104 0
-65 -117 0
-65 -130 0
-65 -143 0
-65 -156 0
-65 -169 0
-65 -182 0
-78 -13 0
-78 -26 0
-78 -39 0
-78 -52 0
-78 -65 0
-78 -91 0
-78 -104 0
-78 -117 0
-78 -130 0
-78 -143 0
-78 -156 0
-78 -169 0
-78 -182 0
-91 -13 0
-91 -26 0
-91 -39 0
-91 -52 0
-91 -65 0
-91 -78 0
-91 -104 0
-91 -117 0
-91 -130 0
-91 -143 0
-91 -156 0
-91 -169 0
-91 -182 0
-104 -13 0
-104 -26 0
-104 -39 0
-104 -52 0
-104 -65 0
-104 -78 0
-104 -91 0
-104 -117 0
-104 -130 0
-104 -143 0
-104 -156 0
-104 -169 0
-104 -182 0
-117 -13 0
-117 -26 0
-117 -39 0
-117 -52 0
-117 -65 0
-117 -78 0
-117 -91 0
-117 -104 0
-117 -130 0
-117 -143 0
-117 -156 0
-117 -169 0
-117 -182 0
-130 -13 0
-130 -26 0
-130 -39 0
-130 -52 0
-130 -65 0
-130 -78 0
-130 -91 0
-130 -104 0
-130 -117 0
-130 -143 0
-130 -156 0
-130 -169 0
-130 -182 0
-143 -13 0
-143 -26 0
-143 -39 0
-143 -52 0
-143 -65 0
-143 -78 0
-143 -91 0
-143 -104 0
-143 -117 0
-143 -130 0
-143 -156 0
-143 -169 0
-143 -182 0
-156 -13 0
-156 -26 0
-156 -39 0
-156 -52 0
-156 -65 0
-156 -78 0
-156 -91 0
-156 -104 0
-156 -117 0
-156 -130 0
-156 -143 0
-156 -169 0
-156 -182 0
-169 -13 0
-169 -26 0
-169 -39 0
-169 -52 0
-169 -65 0
-169 -78 0
-169 -91 0
-169 -104 0
-169 -117 0
-169 -130 0
-169 -143 0
-169 -156 0
-169 -182 0
-182 -13 0
-182 -26 0
-182 -39 0
-182 -52 0
-182 -65 0
-182 -78 0
-182 -91 0
-182 -104 0
-182 -117 0
-182 -130 0
-182 -143 0
-182 -156 0
-182 -169 0